c read Graph
c width = 383
c time = 6 ms
c width = 184
c time = 272 ms
c width = 12
c time = 394 ms
c width = 11
c time = 1854 ms
c width = 10
c time = 6644 ms
c width = 10
c time = 299805 ms
s td 319 11 385
b 1 29 327
b 2 163 164
b 3 46 306
b 4 79 306 307
b 5 157 307 308
b 6 124 300 384 385
b 7 129 251 252 310
b 8 103 166 167 328
b 9 96 167 168 169
b 10 8 171 172 173
b 11 125 173 174 176
b 12 77 176 177 179
b 13 102 180 181 182
b 14 104 183 184 185
b 15 59 188 189 192
b 16 90 192 193 194
b 17 141 195 196 197
b 18 159 197 198 199
b 19 83 200 201 203
b 20 57 203 204 210
b 21 11 210 211 213
b 22 19 219 220 222
b 23 6 222 223 224
b 24 60 229 230 231
b 25 73 231 232 233
b 26 127 233 234 235
b 27 70 236 237 244
b 28 52 244 245 247
b 29 112 247 248 251
b 30 251 252 254 310
b 31 38 254 255 257
b 32 92 259 260 261
b 33 47 261 262 264
b 34 151 264 265 266
b 35 128 267 268 279
b 36 138 280 281 286
b 37 137 291 292 298
b 38 160 310 311 315
b 39 106 315 316 322
b 40 23 322 323 326
b 41 60 73 231 233 385
b 42 60 229 231 233 385
b 43 1 60 229 233 326 385
b 44 1 228 229 233 326 385
b 45 1 228 233 300 326 383 385
b 46 1 300 383 384 385
b 47 61 188 194 224 228 233 300 322 326 377 383
b 48 61 105 188 194 224 228 322 326 377 382 383
b 49 61 105 188 194 224 227 228 322 326 377 382
b 50 61 188 194 224 227 322 326 377 378 379 382
b 51 59 188 194 224 227 322 326 377 378 379 382
b 52 59 110 188 194 224 227 322 326 379 380 382
b 53 59 110 188 194 224 225 227 322 326 380 382
b 54 59 188 192 194 225 227 322 326 380 381 382
b 55 90 192 194 225 226 227 322 326 380 381 382
b 56 27 225 226 227 322 326 380 381
b 57 23 225 226 322 326
b 58 61 188 194 224 233 266 267 300 322 377 383
b 59 128 188 194 224 233 266 267 279 300 322 377
b 60 128 188 194 224 233 266 279 300 322 376 377
b 61 188 194 222 224 233 266 279 300 322 375 376
b 62 151 188 194 222 233 264 266 279 300 322 375
b 63 151 188 194 222 233 264 279 300 322 374 375
b 64 187 188 194 222 233 264 279 300 322 373 374
b 65 187 194 219 222 233 264 279 300 322 372 373
b 66 87 186 187 194 219 233 264 279 300 322 372
b 67 87 186 194 219 233 264 279 300 322 371 372
b 68 139 186 194 218 219 233 264 279 300 322 371
b 69 139 186 194 218 233 264 279 300 322 370 371
b 70 47 186 194 218 233 261 264 279 300 322 370
b 71 47 186 194 218 233 261 279 300 322 369 370
b 72 186 194 218 233 261 279 299 300 322 368 369
b 73 113 185 186 194 218 233 261 279 299 322 368
b 74 113 185 194 218 233 261 279 299 322 367 368
b 75 92 185 194 218 233 259 261 279 299 322 367
b 76 92 185 194 218 233 259 279 299 322 366 367
b 77 185 194 216 218 233 259 279 299 322 364 366
b 78 185 194 216 233 257 259 279 299 322 362 364
b 79 185 194 213 216 233 257 279 299 322 359 362
b 80 104 183 185 194 213 233 257 279 299 322 359
b 81 104 183 194 213 233 257 279 299 322 358 359
b 82 183 194 213 233 257 279 298 299 315 322 358
b 83 183 194 213 233 254 257 279 298 315 357 358
b 84 183 194 213 233 254 279 298 315 357 358
b 85 38 254 257 357 358
b 86 182 183 194 213 233 254 279 298 310 315 357
b 87 179 182 194 213 233 254 279 298 310 355 357
b 88 179 180 182 355 356 357
b 89 102 180 182 356 357
b 90 98 179 180 355 356
b 91 160 182 183 310 315
b 92 106 298 299 315 322
b 93 213 214 216 359 360 362
b 94 214 215 216 360 361 362
b 95 100 215 216 360 361
b 96 54 214 215 361 362
b 97 89 213 214 359 360
b 98 257 258 259 362 363 364
b 99 55 257 258 363 364
b 100 42 258 259 362 363
b 101 216 217 218 364 365 366
b 102 5 217 218 364 365
b 103 155 216 217 365 366
b 104 153 299 300 368 369
b 105 19 219 222 372 373
b 106 114 187 188 373 374
b 107 6 222 224 375 376
b 108 179 194 213 233 247 251 279 290 352 353 354
b 109 179 194 213 233 251 279 290 291 352 353 354
b 110 179 194 213 233 251 254 279 291 310 353 354
b 111 179 194 213 233 254 279 291 298 310 354 355
b 112 179 194 210 213 233 244 247 279 290 350 352
b 113 179 194 210 233 244 279 290 338 340 346 350
b 114 169 179 194 203 210 233 244 338 340 346
b 115 169 179 203 210 340 344 345 346
b 116 57 203 210 344 345
b 117 169 176 179 340 344 345 346
b 118 77 176 179 345 346
b 119 169 173 176 340 343 344
b 120 125 173 176 343 344
b 121 169 171 173 340 342 343
b 122 8 171 173 342 343
b 123 169 170 171 340 341 342
b 124 4 170 171 341 342
b 125 33 169 170 340 341
b 126 169 194 195 203 233 236 244 333 338
b 127 195 197 203 236 244 333 335 338
b 128 195 197 236 244 333 334 335
b 129 70 236 244 334 335
b 130 141 195 197 333 334
b 131 197 200 203 335 337 338
b 132 83 200 203 337 338
b 133 197 199 200 335 336 337
b 134 159 197 199 335 336
b 135 91 199 200 336 337
b 136 169 194 195 233 236 330 331 333
b 137 21 194 195 330 331
b 138 169 233 235 236 330 331 332 333
b 139 68 235 236 332 333
b 140 167 169 233 235 330 331 332
b 141 96 167 169 331 332
b 142 127 167 233 235 330
b 143 279 286 290 338 340 346 350
b 144 279 280 286 338 339 340
b 145 50 279 280 339 340
b 146 138 280 286 338 339
b 147 286 289 290 346 349 350
b 148 133 289 290 349 350
b 149 286 288 289 346 348 349
b 150 286 287 288 346 347 348
b 151 148 286 287 347 348
b 152 81 287 288 346 347
b 153 115 288 289 348 349
b 154 210 213 244 247 350 351 352
b 155 11 210 213 350 351
b 156 52 244 247 351 352
b 157 137 291 298 354 355
b 158 149 290 291 352 353
b 159 112 247 251 353 354
b 160 127 167 328 329 330
b 161 103 167 328 329 330
b 162 136 325 326
b 163 323 325 326
b 164 121 324 325
b 165 323 324 325
b 166 65 323 324
b 167 93 321 322
b 168 316 321 322
b 169 18 320 321
b 170 316 320 321
b 171 144 319 320
b 172 316 319 320
b 173 108 318 319
b 174 316 318 319
b 175 26 317 318
b 176 316 317 318
b 177 63 316 317
b 178 135 314 315
b 179 311 314 315
b 180 131 313 314
b 181 311 313 314
b 182 88 312 313
b 183 311 312 313
b 184 99 311 312
b 185 62 297 298
b 186 292 297 298
b 187 22 296 297
b 188 292 296 297
b 189 75 295 296
b 190 292 295 296
b 191 71 294 295
b 192 292 294 295
b 193 16 293 294
b 194 292 293 294
b 195 122 292 293
b 196 140 285 286
b 197 281 285 286
b 198 44 284 285
b 199 281 284 285
b 200 145 283 284
b 201 281 283 284
b 202 64 282 283
b 203 281 282 283
b 204 58 281 282
b 205 34 278 279
b 206 268 278 279
b 207 10 277 278
b 208 268 277 278
b 209 80 276 277
b 210 268 276 277
b 211 134 275 276
b 212 268 275 276
b 213 142 274 275
b 214 268 274 275
b 215 117 273 274
b 216 268 273 274
b 217 24 272 273
b 218 268 272 273
b 219 41 271 272
b 220 268 271 272
b 221 161 270 271
b 222 268 270 271
b 223 49 269 270
b 224 268 269 270
b 225 43 268 269
b 226 31 265 266
b 227 85 263 264
b 228 262 263 264
b 229 146 262 263
b 230 48 260 261
b 231 7 256 257
b 232 255 256 257
b 233 76 255 256
b 234 66 253 254
b 235 252 253 254
b 236 154 252 253
b 237 111 250 251
b 238 248 250 251
b 239 36 249 250
b 240 248 249 250
b 241 3 248 249
b 242 78 246 247
b 243 245 246 247
b 244 40 245 246
b 245 116 243 244
b 246 237 243 244
b 247 13 242 243
b 248 237 242 243
b 249 56 241 242
b 250 237 241 242
b 251 147 240 241
b 252 237 240 241
b 253 97 239 240
b 254 237 239 240
b 255 35 238 239
b 256 237 238 239
b 257 95 237 238
b 258 152 234 235
b 259 109 232 233
b 260 74 230 231
b 261 150 223 224
b 262 126 221 222
b 263 220 221 222
b 264 156 220 221
b 265 119 212 213
b 266 211 212 213
b 267 72 211 212
b 268 39 209 210
b 269 204 209 210
b 270 69 208 209
b 271 204 208 209
b 272 158 207 208
b 273 204 207 208
b 274 101 206 207
b 275 204 206 207
b 276 20 205 206
b 277 204 205 206
b 278 132 204 205
b 279 86 202 203
b 280 201 202 203
b 281 107 201 202
b 282 45 198 199
b 283 118 196 197
b 284 67 193 194
b 285 123 191 192
b 286 189 191 192
b 287 14 190 191
b 288 189 190 191
b 289 17 189 190
b 290 12 184 185
b 291 130 181 182
b 292 82 178 179
b 293 177 178 179
b 294 162 177 178
b 295 32 175 176
b 296 174 175 176
b 297 28 174 175
b 298 9 172 173
b 299 15 168 169
b 300 84 166 328
b 301 94 309 310
b 302 129 309 310
b 303 129 308 309
b 304 25 302 303
b 305 124 302 303
b 306 51 304 305
b 307 124 304 305
b 308 120 124 305
b 309 124 303 304
b 310 143 303 304
b 311 30 301 302
b 312 124 301 302
b 313 53 300 301
b 314 124 300 301
b 315 84 327 328
b 316 37 165 166
b 317 84 165 166
b 318 84 164 165
b 319 2
1 315
1 319
2 318
3 4
4 5
5 303
6 314
6 46
7 302
7 30
8 300
8 161
9 299
9 141
10 298
10 122
11 296
11 120
12 293
12 118
13 291
13 89
14 290
14 80
15 286
15 54
16 284
16 55
17 283
17 130
18 282
18 134
19 280
19 132
20 269
20 116
21 266
21 155
22 263
22 105
23 261
23 107
24 260
24 42
25 259
25 41
26 258
26 142
27 246
27 129
28 243
28 156
29 238
29 159
30 235
30 110
31 232
31 85
32 230
32 75
33 228
33 70
34 226
34 62
35 206
35 59
36 197
36 146
37 186
37 157
38 179
38 91
39 168
39 92
40 163
40 57
41 42
42 43
43 44
44 45
45 47
45 46
47 48
47 58
48 49
49 50
50 51
51 52
52 53
53 54
54 55
55 56
56 57
58 59
59 60
60 61
61 107
61 62
62 63
63 64
64 106
64 65
65 105
65 66
66 67
67 68
68 69
69 70
70 71
71 72
72 104
72 73
73 74
74 75
75 76
76 77
77 101
77 78
78 98
78 79
79 93
79 80
80 81
81 82
82 92
82 83
83 86
83 85
83 84
86 91
86 87
87 111
87 88
88 89
88 90
93 94
93 97
94 95
94 96
98 99
98 100
101 103
101 102
108 112
108 159
108 109
109 158
109 110
110 111
111 157
112 113
112 154
113 114
113 143
114 115
114 126
115 117
115 116
117 118
117 119
119 120
119 121
121 122
121 123
123 124
123 125
126 127
126 136
127 131
127 128
128 130
128 129
131 132
131 133
133 135
133 134
136 138
136 137
138 139
138 140
140 141
140 142
142 160
143 147
143 144
144 145
144 146
147 149
147 148
149 153
149 150
150 152
150 151
154 155
154 156
160 161
162 163
163 165
164 165
165 166
167 168
168 170
169 170
170 172
171 172
172 174
173 174
174 176
175 176
176 177
178 179
179 181
180 181
181 183
182 183
183 184
185 186
186 188
187 188
188 190
189 190
190 192
191 192
192 194
193 194
194 195
196 197
197 199
198 199
199 201
200 201
201 203
202 203
203 204
205 206
206 208
207 208
208 210
209 210
210 212
211 212
212 214
213 214
214 216
215 216
216 218
217 218
218 220
219 220
220 222
221 222
222 224
223 224
224 225
227 228
228 229
231 232
232 233
234 235
235 236
237 238
238 240
239 240
240 241
242 243
243 244
245 246
246 248
247 248
248 250
249 250
250 252
251 252
252 254
253 254
254 256
255 256
256 257
262 263
263 264
265 266
266 267
268 269
269 271
270 271
271 273
272 273
273 275
274 275
275 277
276 277
277 278
279 280
280 281
285 286
286 288
287 288
288 289
292 293
293 294
295 296
296 297
300 317
300 315
301 302
302 303
304 305
305 312
305 309
306 307
307 309
307 308
309 310
311 312
312 314
313 314
316 317
317 318
